180
0 61 150 3 30 173 45 11 88 139 
1 137 117 175 15 122 9 53 142 106 
131 52 109 76 162 115 7 121 27 136 
146 56 123 29 66 111 130 16 165 57 
93 149 17 163 101 148 33 129 38 112 
80 10 20 154 64 58 68 81 6 8 
72 75 156 24 96 19 25 168 92 107 
103 12 42 128 35 166 43 132 134 135 
37 73 60 174 126 50 46 23 158 97 
105 178 55 40 87 71 138 161 22 108 
95 48 32 13 14 124 5 159 65 86 
100 34 141 98 67 160 140 83 62 78 
133 114 119 69 170 77 127 157 39 41 
167 120 125 155 94 28 59 143 21 44 
153 79 2 89 91 54 49 4 99 110 
36 63 151 171 177 84 70 90 179 118 
85 18 147 145 113 102 116 164 74 152 
104 26 82 51 144 47 172 176 31 169 
